(set-logic QF_S)
(declare-fun var0 () String)
(assert (str.in.re var0 (re.++ (re.+ (re.* (str.to.re "000"))) (re.++ (re.+ (re.union (str.to.re "1") (str.to.re "222"))) (re.++ (re.+ (re.+ (str.to.re "333"))) (re.++ (re.+ (re.union (str.to.re "444") (str.to.re "5"))) (re.++ (re.union (re.union (str.to.re "66") (str.to.re "777")) (re.union (str.to.re "888") (str.to.re "99"))) (re.++ (re.union (re.union (str.to.re "a") (str.to.re "b")) (re.union (str.to.re "ccc") (str.to.re "dd"))) (re.++ (re.union (re.union (str.to.re "e") (str.to.re "f")) (re.union (str.to.re "ggg") (str.to.re "h"))) (re.++ (re.union (re.+ (str.to.re "i")) (re.+ (str.to.re "j"))) (re.++ (re.+ (re.* (str.to.re "kk"))) (re.++ (re.union (re.+ (str.to.re "ll")) (re.+ (str.to.re "mmm"))) (re.++ (re.+ (re.+ (str.to.re "nn"))) (re.++ (re.union (re.+ (str.to.re "o")) (re.+ (str.to.re "ppp"))) (re.++ (re.+ (re.* (str.to.re "qq"))) (re.++ (re.+ (re.* (str.to.re "r"))) (re.++ (re.union (re.union (str.to.re "s") (str.to.re "t")) (re.union (str.to.re "uu") (str.to.re "v"))) (re.++ (re.* (re.* (str.to.re "ww"))) (re.++ (re.* (re.+ (str.to.re "xxx"))) (re.++ (re.union (re.+ (str.to.re "yy")) (re.+ (str.to.re "z"))) (re.++ (re.* (re.* (str.to.re "AAA"))) (re.++ (re.+ (re.union (str.to.re "B") (str.to.re "C"))) (re.++ (re.* (re.+ (str.to.re "DD"))) (re.++ (re.union (re.+ (str.to.re "EEE")) (re.+ (str.to.re "F"))) (re.++ (re.+ (re.union (str.to.re "GGG") (str.to.re "HHH"))) (re.++ (re.* (re.union (str.to.re "II") (str.to.re "JJJ"))) (re.++ (re.union (re.+ (str.to.re "K")) (re.+ (str.to.re "LL"))) (re.++ (re.+ (re.+ (str.to.re "M"))) (re.++ (re.* (re.* (str.to.re "NNN"))) (re.++ (re.* (re.union (str.to.re "OOO") (str.to.re "P"))) (re.++ (re.union (re.+ (str.to.re "QQ")) (re.+ (str.to.re "RRR"))) (re.++ (re.+ (re.union (str.to.re "S") (str.to.re "T"))) (re.++ (re.union (re.+ (str.to.re "UUU")) (re.+ (str.to.re "VV"))) (re.++ (re.+ (re.* (str.to.re "WW"))) (re.++ (re.union (re.* (str.to.re "XXX")) (re.* (str.to.re "Y"))) (re.++ (re.+ (re.union (str.to.re "ZZ") (str.to.re "!!"))) (re.++ (re.+ (re.* (str.to.re """"""))) (re.++ (re.union (re.+ (str.to.re "#")) (re.+ (str.to.re "$$$"))) (re.++ (re.* (re.+ (str.to.re "%"))) (re.++ (re.+ (re.+ (str.to.re "&"))) (re.++ (re.+ (re.union (str.to.re "'''") (str.to.re "(("))) (re.++ (re.union (re.union (str.to.re "))") (str.to.re "***")) (re.union (str.to.re "++") (str.to.re ","))) (re.++ (re.* (re.+ (str.to.re "--"))) (re.++ (re.union (re.union (str.to.re "..") (str.to.re "///")) (re.union (str.to.re "::") (str.to.re ";;;"))) (re.++ (re.union (re.* (str.to.re "<<<")) (re.* (str.to.re "=="))) (re.++ (re.union (re.+ (str.to.re ">")) (re.+ (str.to.re "???"))) (re.++ (re.union (re.* (str.to.re "@@")) (re.* (str.to.re "[["))) (re.++ (re.union (re.* (str.to.re "\\\\\\")) (re.* (str.to.re "]]"))) (re.++ (re.* (re.* (str.to.re "^^"))) (re.++ (re.union (re.* (str.to.re "___")) (re.* (str.to.re "`"))) (re.++ (re.+ (re.union (str.to.re "{{{") (str.to.re "|"))) (re.++ (re.* (re.* (str.to.re "}}}"))) (re.++ (re.union (re.* (str.to.re "~~")) (re.* (str.to.re "00"))) (re.++ (re.* (re.union (str.to.re "111") (str.to.re "22"))) (re.++ (re.+ (re.union (str.to.re "333") (str.to.re "44"))) (re.++ (re.+ (re.+ (str.to.re "555"))) (re.++ (re.union (re.+ (str.to.re "6")) (re.+ (str.to.re "77"))) (re.++ (re.+ (re.* (str.to.re "8"))) (re.++ (re.union (re.union (str.to.re "99") (str.to.re "aaa")) (re.union (str.to.re "bbb") (str.to.re "cc"))) (re.++ (re.union (re.+ (str.to.re "ddd")) (re.+ (str.to.re "e"))) (re.++ (re.union (re.* (str.to.re "f")) (re.* (str.to.re "g"))) (re.++ (re.union (re.* (str.to.re "h")) (re.* (str.to.re "ii"))) (re.++ (re.* (re.union (str.to.re "jj") (str.to.re "kkk"))) (re.++ (re.union (re.+ (str.to.re "ll")) (re.+ (str.to.re "m"))) (re.++ (re.union (re.* (str.to.re "nn")) (re.* (str.to.re "o"))) (re.++ (re.* (re.union (str.to.re "pp") (str.to.re "q"))) (re.++ (re.* (re.union (str.to.re "rrr") (str.to.re "sss"))) (re.++ (re.union (re.+ (str.to.re "ttt")) (re.+ (str.to.re "uuu"))) (re.++ (re.+ (re.+ (str.to.re "v"))) (re.++ (re.* (re.* (str.to.re "www"))) (re.++ (re.+ (re.union (str.to.re "xxx") (str.to.re "yy"))) (re.++ (re.union (re.+ (str.to.re "z")) (re.+ (str.to.re "AA"))) (re.++ (re.* (re.* (str.to.re "BBB"))) (re.++ (re.* (re.union (str.to.re "CCC") (str.to.re "DDD"))) (re.++ (re.* (re.* (str.to.re "EEE"))) (re.++ (re.union (re.* (str.to.re "F")) (re.* (str.to.re "GGG"))) (re.++ (re.* (re.union (str.to.re "HH") (str.to.re "III"))) (re.++ (re.union (re.+ (str.to.re "JJJ")) (re.+ (str.to.re "K"))) (re.++ (re.+ (re.union (str.to.re "L") (str.to.re "M"))) (re.++ (re.+ (re.union (str.to.re "NN") (str.to.re "OOO"))) (re.++ (re.+ (re.+ (str.to.re "P"))) (re.++ (re.union (re.+ (str.to.re "QQQ")) (re.+ (str.to.re "R"))) (re.++ (re.union (re.+ (str.to.re "S")) (re.+ (str.to.re "T"))) (re.++ (re.* (re.+ (str.to.re "UUU"))) (re.++ (re.union (re.+ (str.to.re "VV")) (re.+ (str.to.re "W"))) (re.++ (re.* (re.+ (str.to.re "X"))) (re.++ (re.+ (re.* (str.to.re "YY"))) (re.++ (re.+ (re.* (str.to.re "Z"))) (re.++ (re.union (re.+ (str.to.re "!!")) (re.+ (str.to.re """"""""))) (re.++ (re.* (re.+ (str.to.re "##"))) (re.++ (re.+ (re.union (str.to.re "$$") (str.to.re "%%"))) (re.++ (re.* (re.+ (str.to.re "&&&"))) (re.++ (re.* (re.+ (str.to.re "''"))) (re.+ (re.union (str.to.re "(") (str.to.re ")"))))))))))))))))))))))))))))))))))))))))))))))))))))))))))))))))))))))))))))))))))))))))))))))))
(check-sat)